
#(C) 2025 by FIZ Karlsruhe - Leibniz Institute for Information Infrastructure.  All rights reserved.
data_23294-ICSD
_database_code_ICSD 23294
_audit_creation_date 1980-12-31
_chemical_name_common 'Cerium scandium trisulfide'
_chemical_formula_structural 'Ce Sc S3'
_chemical_formula_sum 'Ce1 S3 Sc1'
_chemical_name_structure_type GdFeO3
_exptl_crystal_density_diffrn 4.19
_diffrn_ambient_temperature 295.
_citation_title
'Cerium Scandium Sulphide: Structure Refinement by Powder Neutron Diffraction'
loop_
_citation_id
_citation_journal_full
_citation_year
_citation_journal_volume
_citation_page_first
_citation_page_last
_citation_journal_id_ASTM
primary

;
Acta Crystallographica, Section B: Structural Crystallography and Crystal
Chemistry
; 1980 36 2403 2404 ACBCAR
loop_
_citation_author_citation_id
_citation_author_name
primary 'Ijdo, D.J.W.'
_cell_length_a 7.1618(3)
_cell_length_b 9.5621(4)
_cell_length_c 6.5065(3)
_cell_angle_alpha 90.
_cell_angle_beta 90.
_cell_angle_gamma 90.
_cell_volume 445.58
_cell_formula_units_Z 4
_space_group_name_H-M_alt 'P n m a'
_space_group_IT_number 62
loop_
_space_group_symop_id
_space_group_symop_operation_xyz
1 'x+1/2, y, -z+1/2'
2 'x, -y+1/2, z'
3 '-x+1/2, y+1/2, z+1/2'
4 '-x, -y, -z'
5 '-x+1/2, -y, z+1/2'
6 '-x, y+1/2, -z'
7 'x+1/2, -y+1/2, -z+1/2'
8 'x, y, z'
loop_
_atom_type_symbol
_atom_type_oxidation_number
Ce3+ 3
Sc3+ 3
S2- -2
loop_
_atom_site_label
_atom_site_type_symbol
_atom_site_symmetry_multiplicity
_atom_site_Wyckoff_symbol
_atom_site_fract_x
_atom_site_fract_y
_atom_site_fract_z
_atom_site_B_iso_or_equiv
_atom_site_occupancy
Ce1 Ce3+ 4 c 0.0958(4) 0.25 0.0371(8) 0.3 1.
Sc1 Sc3+ 4 b 0 0 0.5 0.65 1.
S1 S2- 4 c -0.0334(11) 0.25 0.6232(10) 0.68 1.
S2 S2- 8 d 0.1881(7) -0.0607(6) 0.8219(8) 0.5 1.
#End of TTdata_23294-ICSD