
#(C) 2025 by FIZ Karlsruhe - Leibniz Institute for Information Infrastructure.  All rights reserved.
data_430644-ICSD
_database_code_ICSD 430644
_audit_creation_date 2017-08-01
_chemical_name_common 'Europium zirconium sulfide (1/1/3) - alpha'
_chemical_formula_structural 'Eu Zr S3'
_chemical_formula_sum 'Eu1 S3 Zr1'
_chemical_name_structure_type NH4CdCl3
_exptl_crystal_density_diffrn 5.06
_diffrn_ambient_temperature 296.
_citation_title

;
Crystal and electronic structures, and photoluminescence and photocatalytic
properties of alpha-EuZrS3
;
loop_
_citation_id
_citation_journal_full
_citation_year
_citation_journal_volume
_citation_page_first
_citation_page_last
_citation_journal_id_ASTM
primary 'New Journal of Chemistry' 2016 40 10219 10226 NJCHE5
loop_
_citation_author_citation_id
_citation_author_name
primary 'Guo, Sheng-Ping'
primary 'Chi, Yang'
primary 'Zou, Jian-Ping'
primary 'Xue, Huai-Guo'
_cell_length_a 8.465(3)
_cell_length_b 3.8075(10)
_cell_length_c 13.823(4)
_cell_angle_alpha 90.
_cell_angle_beta 90.
_cell_angle_gamma 90.
_cell_volume 445.52
_cell_formula_units_Z 4
_space_group_name_H-M_alt 'P n m a'
_space_group_IT_number 62
loop_
_space_group_symop_id
_space_group_symop_operation_xyz
1 'x+1/2, y, -z+1/2'
2 'x, -y+1/2, z'
3 '-x+1/2, y+1/2, z+1/2'
4 '-x, -y, -z'
5 '-x+1/2, -y, z+1/2'
6 '-x, y+1/2, -z'
7 'x+1/2, -y+1/2, -z+1/2'
8 'x, y, z'
loop_
_atom_type_symbol
_atom_type_oxidation_number
Eu2+ 2
Zr4+ 4
S2- -2
loop_
_atom_site_label
_atom_site_type_symbol
_atom_site_symmetry_multiplicity
_atom_site_Wyckoff_symbol
_atom_site_fract_x
_atom_site_fract_y
_atom_site_fract_z
_atom_site_U_iso_or_equiv
_atom_site_occupancy
Eu1 Eu2+ 4 c 0.56682(3) 0.25 0.678718(17) 0.01075(12) 1
Zr1 Zr4+ 4 c 0.82742(5) 0.25 0.44259(3) 0.00643(14) 1
S1 S2- 4 c 0.48222(15) 0.25 0.89258(8) 0.0072(3) 1
S2 S2- 4 c 0.29508(16) -0.25 0.71733(9) 0.0093(3) 1
S3 S2- 4 c 0.33872(14) 0.25 0.48601(9) 0.0089(3) 1
loop_
_atom_site_aniso_label
_atom_site_aniso_type_symbol
_atom_site_aniso_U_11
_atom_site_aniso_U_22
_atom_site_aniso_U_33
_atom_site_aniso_U_12
_atom_site_aniso_U_13
_atom_site_aniso_U_23
Eu1 Eu2+ 0.01424(19) 0.00773(17) 0.01029(16) 0. 0.00086(11) 0.
Zr1 Zr4+ 0.0069(3) 0.0060(2) 0.0065(2) 0. -0.00119(18) 0.
S1 S2- 0.0077(7) 0.0077(6) 0.0061(6) 0. 0.0009(5) 0.
S2 S2- 0.0110(8) 0.0088(6) 0.0081(6) 0. -0.0012(5) 0.
S3 S2- 0.0085(7) 0.0077(6) 0.0105(6) 0. 0.0014(5) 0.
#End of TTdata_430644-ICSD