
#(C) 2025 by FIZ Karlsruhe - Leibniz Institute for Information Infrastructure.  All rights reserved.
data_650846-ICSD
_database_code_ICSD 650846
_audit_creation_date 2012-08-01
_audit_update_record 2019-08-01
_chemical_name_common 'Scandium terbium sulfide (1/1/3)'
_chemical_formula_structural 'Sc Tb S3'
_chemical_formula_sum 'S3 Sc1 Tb1'
_chemical_name_structure_type YScS3
_exptl_crystal_density_diffrn 4.69
_citation_title

;
Sur une nouvelle serie de combinaisons des sesquisulfures de terres rares et
d'yttrium avec le sesquisulfure de scandium
;
_publ_section_comment 'Cell and Type only determined'
loop_
_citation_id
_citation_journal_full
_citation_year
_citation_journal_volume
_citation_page_first
_citation_page_last
_citation_journal_id_ASTM
primary

;
Comptes Rendus des Seances de l'Academie des Sciences, Serie C: Sciences
Chimiques
; 1969 269 1391 1393 CHDCAQ
loop_
_citation_author_citation_id
_citation_author_name
primary 'Rodier, Noel'
primary 'Laruelle, Pierre'
primary 'Flahaut, Jean'
_cell_length_a 7.03
_cell_length_b 6.37
_cell_length_c 9.48
_cell_angle_alpha 90.
_cell_angle_beta 90.
_cell_angle_gamma 90.
_cell_volume 424.52
_cell_formula_units_Z 4
_space_group_name_H-M_alt 'P n a 21'
_space_group_IT_number 33
loop_
_space_group_symop_id
_space_group_symop_operation_xyz
1 'x+1/2, -y+1/2, z'
2 '-x+1/2, y+1/2, z+1/2'
3 '-x, -y, z+1/2'
4 'x, y, z'
loop_
_atom_type_symbol
_atom_type_oxidation_number
Tb3+ 3
Sc3+ 3
S2- -2
loop_
_atom_site_label
_atom_site_type_symbol
_atom_site_symmetry_multiplicity
_atom_site_Wyckoff_symbol
_atom_site_fract_x
_atom_site_fract_y
_atom_site_fract_z
_atom_site_B_iso_or_equiv
_atom_site_occupancy
Tb1 Tb3+ 4 a 0.099 0.039 0 . 1.
Sc1 Sc3+ 4 a 0.001 0.499 0.767 . 1.
S1 S2- 4 a 0.306 0.327 0.184 . 1.
S2 S2- 4 a 0.323 0.323 0.825 . 1.
S3 S2- 4 a 0.048 0.358 0.519 . 1.
#End of TTdata_650846-ICSD