
#(C) 2025 by FIZ Karlsruhe - Leibniz Institute for Information Infrastructure.  All rights reserved.
data_615918-ICSD
_database_code_ICSD 615918
_audit_creation_date 2013-02-01
_audit_update_record 2019-08-01
_chemical_name_common 'Barium hafnium sulfide (1/1/3)'
_chemical_formula_structural 'Ba Hf S3'
_chemical_formula_sum 'Ba1 Hf1 S3'
_chemical_name_structure_type GdFeO3
_exptl_crystal_density_diffrn 5.64
_citation_title 'Sulphides with the GdFeO3 structure'
_publ_section_comment 'Cell and Type only determined'
loop_
_citation_id
_citation_journal_full
_citation_year
_citation_journal_volume
_citation_page_first
_citation_page_last
_citation_journal_id_ASTM
primary

;
Acta Crystallographica, Section B: Structural Crystallography and Crystal
Chemistry
; 1980 36 2223 2226 ACBCAR
loop_
_citation_author_citation_id
_citation_author_name
primary 'Lelieveld, R.'
primary 'Ijdo, D.J.W.'
_cell_length_a 7.002(6)
_cell_length_b 9.915(6)
_cell_length_c 6.995(6)
_cell_angle_alpha 90.
_cell_angle_beta 90.
_cell_angle_gamma 90.
_cell_volume 485.63
_cell_formula_units_Z 4
_space_group_name_H-M_alt 'P n m a'
_space_group_IT_number 62
loop_
_space_group_symop_id
_space_group_symop_operation_xyz
1 'x+1/2, y, -z+1/2'
2 'x, -y+1/2, z'
3 '-x+1/2, y+1/2, z+1/2'
4 '-x, -y, -z'
5 '-x+1/2, -y, z+1/2'
6 '-x, y+1/2, -z'
7 'x+1/2, -y+1/2, -z+1/2'
8 'x, y, z'
loop_
_atom_type_symbol
_atom_type_oxidation_number
Ba2+ 2
Hf4+ 4
S2- -2
loop_
_atom_site_label
_atom_site_type_symbol
_atom_site_symmetry_multiplicity
_atom_site_Wyckoff_symbol
_atom_site_fract_x
_atom_site_fract_y
_atom_site_fract_z
_atom_site_B_iso_or_equiv
_atom_site_occupancy
Ba1 Ba2+ 4 c 0.077 0.25 0.023 . 1.
Hf1 Hf4+ 4 b 0 0 0.5 . 1.
S1 S2- 4 c -0.018 0.25 0.599 . 1.
S2 S2- 8 d 0.196 -0.048 0.809 . 1.
#End of TTdata_615918-ICSD