
#(C) 2025 by FIZ Karlsruhe - Leibniz Institute for Information Infrastructure.  All rights reserved.
data_173844-ICSD
_database_code_ICSD 173844
_audit_creation_date 2009-08-01
_chemical_name_common 'Gadolinium scandium sulfide'
_chemical_formula_structural 'Gd Sc S3'
_chemical_formula_sum 'Gd1 S3 Sc1'
_chemical_name_structure_type GdFeO3
_exptl_crystal_density_diffrn 4.67
_diffrn_ambient_temperature 193.
_citation_title

;
Syntheses, structures, magnetism, and optical properties of gadolinium
scandium chalcogenides
;
loop_
_citation_id
_citation_journal_full
_citation_year
_citation_journal_volume
_citation_page_first
_citation_page_last
_citation_journal_id_ASTM
primary 'Journal of Solid State Chemistry' 2009 182 1075 1081 JSSCBI
loop_
_citation_author_citation_id
_citation_author_name
primary 'Jin Geng Bang'
primary 'Choi Eunsang'
primary 'Albrecht Schmitt, T.E.'
_cell_length_a 7.0361(6)
_cell_length_b 9.4574(8)
_cell_length_c 6.3833(6)
_cell_angle_alpha 90.
_cell_angle_beta 90.
_cell_angle_gamma 90.
_cell_volume 424.77
_cell_formula_units_Z 4
_space_group_name_H-M_alt 'P n m a'
_space_group_IT_number 62
loop_
_space_group_symop_id
_space_group_symop_operation_xyz
1 'x+1/2, y, -z+1/2'
2 'x, -y+1/2, z'
3 '-x+1/2, y+1/2, z+1/2'
4 '-x, -y, -z'
5 '-x+1/2, -y, z+1/2'
6 '-x, y+1/2, -z'
7 'x+1/2, -y+1/2, -z+1/2'
8 'x, y, z'
loop_
_atom_type_symbol
_atom_type_oxidation_number
Gd3+ 3
Sc3+ 3
S2- -2
loop_
_atom_site_label
_atom_site_type_symbol
_atom_site_symmetry_multiplicity
_atom_site_Wyckoff_symbol
_atom_site_fract_x
_atom_site_fract_y
_atom_site_fract_z
_atom_site_U_iso_or_equiv
_atom_site_occupancy
Gd1 Gd3+ 4 c 0.09845(3) 0.25 0.03744(4) 0.0099(1) 1.
Sc1 Sc3+ 4 b 0 0 0.5 0.0066(2) 1.
S1 S2- 8 d 0.3151(1) 0.43309(8) 0.3248(1) 0.0086(2) 1.
S2 S2- 4 c 0.9553(2) 0.25 0.6385(2) 0.0082(2) 1.
#End of TTdata_173844-ICSD